SPARKNaCl/why3-z3/sparknacl-hashing-rfsb509.adb_213_24_overflow_check_1.smt2
;; produced by z3_gnatprove.drv ;;
(set-info :smt-lib-version 2.5)
(set-info :source |VC generated by SPARK 2014|)
(set-info :category industrial)
(set-info :status unknown)
;;; generated by SMT-LIB2 driver
;;; SMT-LIB2 driver: bit-vectors, common part
;;; SMT-LIB2: integer arithmetic
(declare-datatypes ()
  ((int__ref (int__refqtmk (int__content Int)))))

(declare-sort tinteger_32B 0)

;; "tinteger_32B'int"
(declare-fun tinteger_32Bqtint (tinteger_32B) Int)

;; "tinteger_32B'axiom"
(assert
  (forall ((i tinteger_32B))
    (and
      (<= (- 2147483648) (tinteger_32Bqtint i))
      (<= (tinteger_32Bqtint i) 2147483647))))

;; "in_range"
(define-fun in_range ((x Int)) Bool
  (and (<= (- 2147483648) x) (<= x 2147483647)))

;; "to_rep"
(define-fun to_rep ((x tinteger_32B)) Int
  (tinteger_32Bqtint x))

;; "of_rep"
(declare-fun of_rep (Int) tinteger_32B)

;; "inversion_axiom"
(assert
  (forall ((x tinteger_32B))
    (! (= (of_rep (to_rep x)) x) :pattern ((to_rep x)) )))

;; "range_axiom"
(assert
  (forall ((x tinteger_32B))
    (! (in_range (to_rep x)) :pattern ((to_rep x)) )))

;; "coerce_axiom"
(assert
  (forall ((x Int))
    (! (=> (in_range x) (= (to_rep (of_rep x)) x)) :pattern ((to_rep
                                                               (of_rep x))) )))

;; "in_range"
(define-fun in_range1 ((x Int)) Bool
  (and (<= 0 x) (<= x 2147483647)))

(declare-sort byte 0)

;; "to_rep"
(declare-fun to_rep1 (byte) (_ BitVec 8))

;; "of_rep"
(declare-fun of_rep1 ((_ BitVec 8)) byte)

;; "inversion_axiom"
(assert
  (forall ((x byte)) (! (= (of_rep1 (to_rep1 x)) x) :pattern ((to_rep1 x)) )))

;; "range_axiom"
(assert true)

;; "coerce_axiom"
(assert
  (forall ((x (_ BitVec 8)))
    (! (= (to_rep1 (of_rep1 x)) x) :pattern ((to_rep1 (of_rep1 x))) )))

(declare-sort map1 0)

(declare-datatypes ()
  ((map__ref (map__refqtmk (map__content map1)))))

;; "has_bounds"
(declare-fun has_bounds (map1
  Int
  Int) Bool)

;; "get"
(declare-fun get (map1
  Int) byte)

(declare-datatypes ()
  ((t (tqtmk (rec__first tinteger_32B)(rec__last tinteger_32B)))))

;; "dynamic_property"
(define-fun dynamic_property ((range_first Int) (range_last Int) (low Int) (high Int)) Bool
  (and
    (in_range low)
    (and
      (in_range high)
      (=> (<= low high) (and (in_range1 low) (in_range1 high))))))

(declare-datatypes ()
  ((us_t (us_tqtmk (elts map1)(rt t)))))

;; "first"
(define-fun first ((a us_t)) Int
  (to_rep (rec__first (rt a))))

;; "last"
(define-fun last ((a us_t)) Int
  (to_rep (rec__last (rt a))))

;; "length"
(define-fun length ((a us_t)) Int
  (ite (<= (first a) (last a)) (+ (- (last a) (first a)) 1) 0))

;; "well_formed"
(define-fun well_formed ((a us_t)) Bool
  (has_bounds
    (elts a)
    (to_rep (rec__first (rt a)))
    (to_rep (rec__last (rt a)))))

;; "dynamic_invariant"
(define-fun dynamic_invariant ((temp___expr_371 map1) (temp___is_init_367 Bool) (temp___skip_constant_368 Bool) (temp___do_toplevel_369 Bool) (temp___do_typ_inv_370 Bool)) Bool
  (and
    (=>
      (= temp___is_init_367 true)
      (=>
        (= temp___do_toplevel_369 true)
        (= (bvand (to_rep1 (get temp___expr_371 63)) #xE0) #x00)))
    (has_bounds temp___expr_371 0 63)))

(declare-const input us_t)

;; "in_range"
(define-fun in_range2 ((x Int)) Bool
  (and (<= (- 2147483648) x) (<= x 2147483647)))

;; "dynamic_invariant"
(define-fun dynamic_invariant1 ((temp___expr_225 us_t) (temp___is_init_221 Bool) (temp___skip_constant_222 Bool) (temp___do_toplevel_223 Bool) (temp___do_typ_inv_224 Bool)) Bool
  (and
    (=>
      (not (= temp___skip_constant_222 true))
      (dynamic_property
        0
        2147483647
        (first temp___expr_225)
        (last temp___expr_225)))
    (well_formed temp___expr_225)))

;; "in_range"
(define-fun in_range3 ((x Int)) Bool
  (and (<= 0 x) (<= x 47)))

;; "in_range"
(define-fun in_range4 ((x Int)) Bool
  (and (<= (- 9223372036854775808) x) (<= x 9223372036854775807)))

;; "in_range"
(define-fun in_range5 ((x Int)) Bool
  (and (<= (- 9223372036854775808) x) (<= x 9223372036854775807)))

(declare-const output map1)

(declare-const bytes_remaining Int)

(declare-const block map1)

;; "block'unused"
(define-fun blockqtunused () map__ref
  (map__refqtmk block))

;; "output'unused"
(define-fun outputqtunused () map__ref
  (map__refqtmk output))

;; "Assume"
(assert (dynamic_invariant output true false true true))

;; "Assume"
(assert (in_range3 bytes_remaining))

;; "Assume"
(assert (dynamic_invariant1 input true false true true))

;; "Assume"
(assert true)

;; "o"
(define-fun o () Int
  (length input))

;; "length'result'unused"
(define-fun lengthqtresultqtunused () Int
  o)

;; "Ensures"
(assert (in_range4 o))

;; "range_check_'result'unused"
(define-fun range_check_qtresultqtunused () Int
  o)

(declare-const remainder Int)

;; "remainder'unused"
(define-fun remainderqtunused () int__ref
  (int__refqtmk remainder))

;; "H"
(assert (= remainder o))

;; "Assume"
(assert (in_range5 remainder))

;; "o"
(define-fun o1 () Int
  (first input))

;; "first'result'unused"
(define-fun firstqtresultqtunused () Int
  o1)

;; "Ensures"
(assert (in_range2 o1))

;; "range_check_'result'unused"
(define-fun range_check_qtresultqtunused1 () Int
  o1)

(declare-const current_byte Int)

;; "current_byte'unused"
(define-fun current_byteqtunused () int__ref
  (int__refqtmk current_byte))

;; "H"
(assert (= current_byte o1))

;; "Assume"
(assert (in_range2 current_byte))

;; "Assume"
(assert true)

;; "Assume"
(assert (has_bounds block 0 47))

;; "int__content'result'unused"
(define-fun int__contentqtresultqtunused () Int
  remainder)

;; "infix >='result'unused"
(define-fun infix_gteqqtresultqtunused () Bool
  (ite (<= 48 remainder) true false))

;; "H"
(assert (<= 48 remainder))

;; "temp___loop_entry_936'unused"
(define-fun temp___loop_entry_936qtunused () map1
  output)

;; "map__content'result'unused"
(define-fun map__contentqtresultqtunused () map1
  output)

;; "temp___loop_entry_934'unused"
(define-fun temp___loop_entry_934qtunused () map1
  block)

;; "map__content'result'unused"
(define-fun map__contentqtresultqtunused1 () map1
  block)

;; "temp___loop_entry_932'unused"
(define-fun temp___loop_entry_932qtunused () Int
  current_byte)

;; "int__content'result'unused"
(define-fun int__contentqtresultqtunused1 () Int
  current_byte)

;; "temp___loop_entry_931'unused"
(define-fun temp___loop_entry_931qtunused () Int
  remainder)

;; "int__content'result'unused"
(define-fun int__contentqtresultqtunused2 () Int
  remainder)

;; "int__content'result'unused"
(define-fun int__contentqtresultqtunused3 () Int
  current_byte)

;; "o"
(define-fun o2 () Int
  (last input))

;; "last'result'unused"
(define-fun lastqtresultqtunused () Int
  o2)

;; "o"
(define-fun o3 () Int
  (- o2 48))

;; "infix -'result'unused"
(define-fun infix_mnqtresultqtunused () Int
  o3)

;; "Ensures"
(assert (in_range o3))

;; "range_check_'result'unused"
(define-fun range_check_qtresultqtunused2 () Int
  o3)

;; "o"
(define-fun o4 () Int
  (+ o3 1))

;; "infix +'result'unused"
(define-fun infix_plqtresultqtunused () Int
  o4)

;; "o"
(define-fun o5 () Bool
  (ite (<= current_byte o4) true false))

;; "infix <='result'unused"
(define-fun infix_lseqqtresultqtunused () Bool
  o5)

;; "o"
(define-fun o6 () Int
  (first input))

;; "first'result'unused"
(define-fun firstqtresultqtunused1 () Int
  o6)

;; "o"
(define-fun o7 () Bool
  (ite (<= o6 current_byte) true false))

;; "infix <='result'unused"
(define-fun infix_lseqqtresultqtunused1 () Bool
  o7)

;; "o"
(define-fun o8 () Bool
  (and o7 o5))

;; "andb'result'unused"
(define-fun andbqtresultqtunused () Bool
  o8)

;; "int__content'result'unused"
(define-fun int__contentqtresultqtunused4 () Int
  remainder)

;; "o"
(define-fun o9 () Int
  (length input))

;; "length'result'unused"
(define-fun lengthqtresultqtunused1 () Int
  o9)

;; "Ensures"
(assert (in_range4 o9))

;; "range_check_'result'unused"
(define-fun range_check_qtresultqtunused3 () Int
  o9)

;; "o"
(define-fun o10 () Bool
  (ite (<= remainder o9) true false))

;; "infix <='result'unused"
(define-fun infix_lseqqtresultqtunused2 () Bool
  o10)

;; "o"
(define-fun o11 () Bool
  (ite (<= 48 remainder) true false))

;; "infix <='result'unused"
(define-fun infix_lseqqtresultqtunused3 () Bool
  o11)

;; "o"
(define-fun o12 () Bool
  (and o11 o10))

;; "andb'result'unused"
(define-fun andbqtresultqtunused1 () Bool
  o12)

;; "o"
(define-fun o13 () Int
  (last input))

;; "last'result'unused"
(define-fun lastqtresultqtunused1 () Int
  o13)

;; "o"
(define-fun o14 () Int
  (+ o13 1))

;; "infix +'result'unused"
(define-fun infix_plqtresultqtunused1 () Int
  o14)

;; "int__content'result'unused"
(define-fun int__contentqtresultqtunused5 () Int
  current_byte)

;; "int__content'result'unused"
(define-fun int__contentqtresultqtunused6 () Int
  remainder)

;; "o"
(define-fun o15 () Int
  (+ remainder current_byte))

;; "infix +'result'unused"
(define-fun infix_plqtresultqtunused2 () Int
  o15)

;; Goal "def'vc"
;; File "sparknacl-hashing-rfsb509.adb", line 60, characters 0-0
(assert
  (not (<= (- 9223372036854775808) o15)))

(check-sat)
